20
1 0 1
2 0 2
2 1 1
3 0 3
3 1 3
3 2 1
4 0 1
4 1 2
4 2 1
4 3 3
5 0 1
5 1 1
5 2 1
5 3 1
5 4 1
6 0 1
6 1 1
6 2 3
6 3 1
6 4 2
6 5 1
7 0 1
7 1 3
7 2 1
7 3 1
7 4 1
7 5 3
7 6 2
8 0 2
8 1 2
8 2 1
8 3 3
8 4 2
8 5 1
8 6 1
8 7 3
9 0 1
9 1 2
9 2 3
9 3 2
9 4 2
9 5 2
9 6 3
9 7 2
9 8 1
10 0 3
10 1 2
10 2 1
10 3 3
10 4 3
10 5 1
10 6 2
10 7 3
10 8 2
10 9 3
11 0 2
11 1 3
11 2 2
11 3 1
11 4 2
11 5 1
11 6 3
11 7 3
11 8 3
11 9 1
11 10 1
12 0 3
12 1 1
12 2 1
12 3 3
12 4 1
12 5 3
12 6 3
12 7 3
12 8 2
12 9 3
12 10 3
12 11 1
13 0 1
13 1 3
13 2 1
13 3 3
13 4 3
13 5 2
13 6 2
13 7 1
13 8 2
13 9 3
13 10 1
13 11 1
13 12 2
14 0 3
14 1 2
14 2 3
14 3 2
14 4 1
14 5 2
14 6 3
14 7 1
14 8 1
14 9 3
14 10 1
14 11 2
14 12 3
14 13 2
15 0 3
15 1 1
15 2 1
15 3 1
15 4 3
15 5 3
15 6 3
15 7 3
15 8 3
15 9 2
15 10 2
15 11 2
15 12 1
15 13 1
15 14 2
16 0 1
16 1 2
16 2 3
16 3 1
16 4 1
16 5 3
16 6 2
16 7 1
16 8 3
16 9 2
16 10 2
16 11 2
16 12 2
16 13 2
16 14 1
16 15 3
17 0 3
17 1 1
17 2 3
17 3 1
17 4 1
17 5 1
17 6 1
17 7 1
17 8 1
17 9 1
17 10 3
17 11 2
17 12 3
17 13 1
17 14 3
17 15 1
17 16 2
18 0 2
18 1 2
18 2 1
18 3 1
18 4 3
18 5 1
18 6 1
18 7 1
18 8 1
18 9 1
18 10 3
18 11 3
18 12 2
18 13 3
18 14 1
18 15 3
18 16 1
18 17 2
19 0 1
19 1 1
19 2 2
19 3 2
19 4 3
19 5 3
19 6 2
19 7 1
19 8 1
19 9 1
19 10 1
19 11 2
19 12 2
19 13 2
19 14 2
19 15 1
19 16 1
19 17 1
19 18 2
